p cnf 64 471
-64 -47 -30 -13 0
-64 -46 -31 -13 0
-63 -46 -32 -13 0
-62 -47 -32 -13 0
-64 -47 -29 -14 0
-63 -48 -29 -14 0
-64 -45 -31 -14 0
-63 -45 -32 -14 0
-61 -47 -32 -14 0
-64 -46 -29 -15 0
-62 -48 -29 -15 0
-64 -45 -30 -15 0
-61 -48 -30 -15 0
-62 -45 -32 -15 0
-61 -46 -32 -15 0
-63 -46 -29 -16 0
-62 -47 -29 -16 0
-63 -45 -30 -16 0
-61 -47 -30 -16 0
-62 -45 -31 -16 0
-61 -46 -31 -16 0
-64 -59 -54 -49 0
-63 -60 -54 -49 0
-64 -58 -55 -49 0
-62 -60 -55 -49 0
-62 -59 -56 -49 0
-64 -59 -53 -50 0
-64 -57 -55 -50 0
-61 -60 -55 -50 0
-61 -59 -56 -50 0
-64 -58 -53 -51 0
-64 -57 -54 -51 0
-61 -58 -56 -51 0
-63 -58 -53 -52 0
-62 -59 -53 -52 0
-63 -57 -54 -52 0
-61 -59 -54 -52 0
-62 -57 -55 -52 0
-61 -58 -55 -52 0
-60 -43 -26 -9 0
-59 -44 -26 -9 0
-58 -44 -27 -9 0
-59 -42 -28 -9 0
-58 -43 -28 -9 0
-59 -44 -25 -10 0
-57 -44 -27 -10 0
-59 -41 -28 -10 0
-57 -43 -28 -10 0
-60 -42 -25 -11 0
-58 -44 -25 -11 0
-60 -41 -26 -11 0
-57 -44 -26 -11 0
-58 -41 -28 -11 0
-57 -42 -28 -11 0
-59 -42 -25 -12 0
-58 -43 -25 -12 0
-59 -41 -26 -12 0
-57 -43 -26 -12 0
-58 -41 -27 -12 0
-57 -42 -27 -12 0
-47 -44 -38 -33 0
-48 -42 -39 -33 0
-46 -44 -39 -33 0
-47 -42 -40 -33 0
-46 -43 -40 -33 0
-48 -43 -37 -34 0
-47 -44 -37 -34 0
-48 -41 -39 -34 0
-45 -44 -39 -34 0
-47 -41 -40 -34 0
-45 -43 -40 -34 0
-48 -42 -37 -35 0
-46 -44 -37 -35 0
-48 -41 -38 -35 0
-45 -44 -38 -35 0
-46 -41 -40 -35 0
-45 -42 -40 -35 0
-47 -42 -37 -36 0
-46 -43 -37 -36 0
-47 -41 -38 -36 0
-45 -43 -38 -36 0
-46 -41 -39 -36 0
-45 -42 -39 -36 0
-56 -39 -22 -5 0
-55 -40 -22 -5 0
-56 -38 -23 -5 0
-54 -40 -23 -5 0
-55 -38 -24 -5 0
-56 -39 -21 -6 0
-55 -40 -21 -6 0
-56 -37 -23 -6 0
-53 -40 -23 -6 0
-55 -37 -24 -6 0
-56 -38 -21 -7 0
-54 -40 -21 -7 0
-56 -37 -22 -7 0
-53 -40 -22 -7 0
-54 -37 -24 -7 0
-55 -38 -21 -8 0
-54 -39 -21 -8 0
-55 -37 -22 -8 0
-53 -39 -22 -8 0
-54 -37 -23 -8 0
-53 -38 -23 -8 0
-32 -27 -22 -17 0
-31 -28 -22 -17 0
-32 -26 -23 -17 0
-30 -28 -23 -17 0
-30 -27 -24 -17 0
-32 -27 -21 -18 0
-32 -25 -23 -18 0
-29 -28 -23 -18 0
-29 -27 -24 -18 0
-32 -26 -21 -19 0
-32 -25 -22 -19 0
-29 -26 -24 -19 0
-31 -26 -21 -20 0
-30 -27 -21 -20 0
-31 -25 -22 -20 0
-29 -27 -22 -20 0
-30 -25 -23 -20 0
-29 -26 -23 -20 0
-52 -35 -18 -1 0
-51 -36 -18 -1 0
-52 -34 -19 -1 0
-50 -36 -19 -1 0
-51 -34 -20 -1 0
-50 -35 -20 -1 0
-52 -35 -17 -2 0
-51 -36 -17 -2 0
-52 -33 -19 -2 0
-49 -36 -19 -2 0
-51 -33 -20 -2 0
-49 -35 -20 -2 0
-52 -34 -17 -3 0
-50 -36 -17 -3 0
-52 -33 -18 -3 0
-49 -36 -18 -3 0
-50 -33 -20 -3 0
-49 -34 -20 -3 0
-50 -35 -17 -4 0
-49 -35 -18 -4 0
-50 -33 -19 -4 0
-49 -34 -19 -4 0
-16 -11 -6 -1 0
-15 -12 -6 -1 0
-16 -10 -7 -1 0
-14 -12 -7 -1 0
-15 -10 -8 -1 0
-14 -11 -8 -1 0
-16 -11 -5 -2 0
-15 -12 -5 -2 0
-16 -9 -7 -2 0
-13 -12 -7 -2 0
-15 -9 -8 -2 0
-13 -11 -8 -2 0
-16 -10 -5 -3 0
-14 -12 -5 -3 0
-16 -9 -6 -3 0
-13 -12 -6 -3 0
-14 -9 -8 -3 0
-13 -10 -8 -3 0
-15 -10 -5 -4 0
-14 -11 -5 -4 0
-15 -9 -6 -4 0
-13 -11 -6 -4 0
-14 -9 -7 -4 0
-48 -64 0
-32 -64 0
-32 -48 0
-16 -64 0
-16 -48 0
-16 -32 0
-47 -63 0
-31 -63 0
-31 -47 0
-15 -63 0
-15 -47 0
-15 -31 0
-46 -62 0
-30 -62 0
-30 -46 0
-14 -62 0
-14 -46 0
-14 -30 0
-45 -61 0
-29 -61 0
-29 -45 0
-13 -61 0
-13 -45 0
-13 -29 0
-44 -60 0
-28 -60 0
-28 -44 0
-12 -60 0
-12 -44 0
-12 -28 0
-43 -59 0
-27 -59 0
-27 -43 0
-11 -59 0
-11 -43 0
-11 -27 0
-42 -58 0
-26 -58 0
-26 -42 0
-10 -58 0
-10 -42 0
-10 -26 0
-41 -57 0
-25 -57 0
-25 -41 0
-9 -57 0
-9 -41 0
-9 -25 0
-40 -56 0
-24 -56 0
-24 -40 0
-8 -56 0
-8 -40 0
-8 -24 0
-39 -55 0
-23 -55 0
-23 -39 0
-7 -55 0
-7 -39 0
-7 -23 0
-38 -54 0
-22 -54 0
-22 -38 0
-6 -54 0
-6 -38 0
-6 -22 0
-37 -53 0
-21 -53 0
-21 -37 0
-5 -53 0
-5 -37 0
-5 -21 0
-36 -52 0
-20 -52 0
-20 -36 0
-4 -52 0
-4 -36 0
-4 -20 0
-35 -51 0
-19 -51 0
-19 -35 0
-3 -51 0
-3 -35 0
-3 -19 0
-34 -50 0
-18 -50 0
-18 -34 0
-2 -50 0
-2 -34 0
-2 -18 0
-33 -49 0
-17 -49 0
-17 -33 0
-1 -49 0
-1 -33 0
-1 -17 0
-60 -64 0
-56 -64 0
-56 -60 0
-52 -64 0
-52 -60 0
-52 -56 0
-59 -63 0
-55 -63 0
-55 -59 0
-51 -63 0
-51 -59 0
-51 -55 0
-58 -62 0
-54 -62 0
-54 -58 0
-50 -62 0
-50 -58 0
-50 -54 0
-57 -61 0
-53 -61 0
-53 -57 0
-49 -61 0
-49 -57 0
-49 -53 0
-44 -48 0
-40 -48 0
-40 -44 0
-36 -48 0
-36 -44 0
-36 -40 0
-43 -47 0
-39 -47 0
-39 -43 0
-35 -47 0
-35 -43 0
-35 -39 0
-42 -46 0
-38 -46 0
-38 -42 0
-34 -46 0
-34 -42 0
-34 -38 0
-41 -45 0
-37 -45 0
-37 -41 0
-33 -45 0
-33 -41 0
-33 -37 0
-28 -32 0
-24 -32 0
-24 -28 0
-20 -32 0
-20 -28 0
-20 -24 0
-27 -31 0
-23 -31 0
-23 -27 0
-19 -31 0
-19 -27 0
-19 -23 0
-26 -30 0
-22 -30 0
-22 -26 0
-18 -30 0
-18 -26 0
-18 -22 0
-25 -29 0
-21 -29 0
-21 -25 0
-17 -29 0
-17 -25 0
-17 -21 0
-12 -16 0
-8 -16 0
-8 -12 0
-4 -16 0
-4 -12 0
-4 -8 0
-11 -15 0
-7 -15 0
-7 -11 0
-3 -15 0
-3 -11 0
-3 -7 0
-10 -14 0
-6 -14 0
-6 -10 0
-2 -14 0
-2 -10 0
-2 -6 0
-9 -13 0
-5 -13 0
-5 -9 0
-1 -13 0
-1 -9 0
-1 -5 0
-63 -64 0
-62 -64 0
-62 -63 0
-61 -64 0
-61 -63 0
-61 -62 0
-59 -60 0
-58 -60 0
-58 -59 0
-57 -60 0
-57 -59 0
-57 -58 0
-55 -56 0
-54 -56 0
-54 -55 0
-53 -56 0
-53 -55 0
-53 -54 0
-51 -52 0
-50 -52 0
-50 -51 0
-49 -52 0
-49 -51 0
-49 -50 0
-47 -48 0
-46 -48 0
-46 -47 0
-45 -48 0
-45 -47 0
-45 -46 0
-43 -44 0
-42 -44 0
-42 -43 0
-41 -44 0
-41 -43 0
-41 -42 0
-39 -40 0
-38 -40 0
-38 -39 0
-37 -40 0
-37 -39 0
-37 -38 0
-35 -36 0
-34 -36 0
-34 -35 0
-33 -36 0
-33 -35 0
-33 -34 0
-31 -32 0
-30 -32 0
-30 -31 0
-29 -32 0
-29 -31 0
-29 -30 0
-27 -28 0
-26 -28 0
-26 -27 0
-25 -28 0
-25 -27 0
-25 -26 0
-23 -24 0
-22 -24 0
-22 -23 0
-21 -24 0
-21 -23 0
-21 -22 0
-19 -20 0
-18 -20 0
-18 -19 0
-17 -20 0
-17 -19 0
-17 -18 0
-15 -16 0
-14 -16 0
-14 -15 0
-13 -16 0
-13 -15 0
-13 -14 0
-11 -12 0
-10 -12 0
-10 -11 0
-9 -12 0
-9 -11 0
-9 -10 0
-7 -8 0
-6 -8 0
-6 -7 0
-5 -8 0
-5 -7 0
-5 -6 0
-3 -4 0
-2 -4 0
-2 -3 0
-1 -4 0
-1 -3 0
-1 -2 0
64 63 62 61 0
60 59 58 57 0
56 55 54 53 0
52 51 50 49 0
48 47 46 45 0
44 43 42 41 0
40 39 38 37 0
36 35 34 33 0
32 31 30 29 0
28 27 26 25 0
24 23 22 21 0
20 19 18 17 0
16 15 14 13 0
12 11 10 9 0
8 7 6 5 0
4 3 2 1 0
